Traveling Salesman Problem/TSP_generados/Aleatorio1620390947_10.tsp
NAME: Aleatorio1620390947_10.tsp
COMMENT: Randomly generated scenario
TYPE: TSP
DIMENSION: 10
EDGE_WEIGHT_TYPE: ATT
NODE_COORD_SECTION
1 12.2 24.47
2 34.72 37.96
3 48.31 42.58
4 42.03 27.63
5 13.31 18.33
6 23.53 14.96
7 29.99 37.88
8 15.48 8.73
9 16.23 28.2
10 31.51 9.77
