Traveling Salesman Problem/TSP_generados/Aleatorio1620390947_10.opt.tour
NAME: Aleatorio1620390947_10.opt.tour
COMMENT: Optimal solution for Aleatorio1620390947_10 (114.12316398348972)
TYPE: TOUR
DIMENSION: 10
TOUR_SECTION
1 5 8 6 10 4 3 2 7 9
-1
EOF
